\ This file has been generated by DOcplex
\ ENCODING=ISO-8859-1
\Problem name: random_problem.lp

Minimize
 obj: - 632 x0 - 316 x1 - 158 x2 + 1072 x3 + 536 x4 + 268 x5 + [ 82592 x0^2
      + 82592 x0*x1 + 41296 x0*x2 + 14144 x0*x3 + 7072 x0*x4 + 3536 x0*x5
      + 20648 x1^2 + 20648 x1*x2 + 7072 x1*x3 + 3536 x1*x4 + 1768 x1*x5
      + 5162 x2^2 + 3536 x2*x3 + 1768 x2*x4 + 884 x2*x5 + 7616 x3^2 + 7616 x3*x4
      + 3808 x3*x5 + 1904 x4^2 + 1904 x4*x5 + 476 x5^2 ]/2
Subject To
 c0: 4 x0 + 2 x1 + x2 + 4 x3 + 2 x4 + x5 = 7

Bounds
 0 <= x0 <= 1
 0 <= x1 <= 1
 0 <= x2 <= 1
 0 <= x3 <= 1
 0 <= x4 <= 1
 0 <= x5 <= 1

Binaries
 x0 x1 x2 x3 x4 x5
End
